c parity= 1 0 0 0 0 1 0 0 0 0 1 0 1 1 1 1 1 0 1 1 0 1 1 1 1 1 1 1 0 0 1 1 
c e=1/4
p cnf 32 64
x 1 2 5 7 9 10 13 14 15 16 17 23 24 27 28 31 0
x -1 2 4 6 9 11 12 14 15 18 19 20 21 27 28 29 30 32 0
x 1 3 4 5 14 16 18 19 24 25 26 27 31 0
x 2 5 6 7 8 9 10 12 17 23 24 25 27 29 31 0
x 3 12 14 16 17 18 20 22 23 24 27 29 30 31 0
x 1 2 3 4 6 7 9 10 12 14 16 17 18 25 30 31 32 0
x -1 7 8 11 15 16 18 20 21 22 24 25 27 29 30 31 0
x -1 4 5 6 7 9 11 14 15 17 21 22 24 25 26 27 28 31 0
x -2 5 7 8 10 12 23 25 26 27 28 29 30 31 32 0
x 1 3 5 9 10 12 13 14 15 16 17 18 20 21 22 23 24 25 26 28 29 31 32 0
x -3 4 5 6 7 9 13 16 21 23 27 29 30 0
x -2 5 7 9 12 13 14 20 27 28 29 32 0
x -2 3 4 5 6 12 16 19 21 22 23 24 27 28 30 0
x -6 7 8 9 14 15 17 21 23 29 30 31 0
x -1 6 7 14 15 16 19 21 22 28 29 30 0
x -1 2 3 5 6 8 10 18 22 24 25 31 0
x -3 4 8 11 12 14 19 21 22 24 25 26 28 29 30 31 32 0
x -1 3 4 6 10 12 13 15 16 17 18 19 22 24 27 30 0
x -1 3 4 6 9 10 13 14 19 20 21 23 24 25 32 0
x 3 8 10 11 13 14 15 17 19 20 21 22 23 25 26 28 29 30 32 0
x 2 8 9 10 11 12 13 14 17 18 19 20 21 23 24 27 29 30 31 0
x -3 6 8 12 13 14 15 16 17 18 19 26 27 29 31 32 0
x -1 2 3 4 5 6 8 11 12 14 17 19 23 25 31 32 0
x 3 4 5 6 7 8 10 12 14 15 17 18 20 21 26 27 29 31 0
x 1 2 3 9 11 16 17 18 19 20 21 22 25 27 29 30 0
x 4 5 6 8 9 11 12 14 15 16 18 19 22 24 25 26 31 0
x -2 4 6 7 10 12 15 16 17 23 24 25 27 29 31 32 0
x 2 3 5 6 9 12 13 14 17 18 19 25 26 27 28 29 30 0
x 1 4 9 10 11 13 14 15 16 17 19 21 22 23 25 26 27 31 32 0
x 1 2 3 5 6 11 19 20 22 23 25 26 27 32 0
x -1 3 4 6 8 9 10 11 17 19 22 23 25 26 27 29 0
x -1 4 5 7 10 12 13 15 16 19 20 21 22 23 25 26 27 28 30 0
x -2 5 7 8 12 13 14 17 23 25 27 29 30 0
x -1 2 8 10 11 13 14 16 18 19 22 25 27 28 0
x -1 2 3 4 11 12 14 15 19 21 22 24 25 27 28 30 31 0
x -1 3 4 6 13 16 20 23 24 26 0
x 1 2 3 5 6 9 11 14 17 20 21 22 23 25 28 29 31 0
x -1 8 10 11 14 15 21 25 27 29 30 0
x 1 3 6 7 9 12 16 17 19 22 25 26 30 32 0
x 1 5 6 8 9 10 13 14 15 16 19 20 22 23 27 28 29 30 32 0
x 1 5 6 7 8 10 15 18 19 26 31 32 0
x 3 5 6 7 8 11 12 15 17 21 23 29 30 32 0
x -1 6 7 10 11 12 14 18 20 22 23 26 29 30 0
x 2 3 5 7 12 14 16 18 23 27 28 31 32 0
x 1 3 4 8 10 12 13 14 15 16 17 18 21 22 23 26 30 0
x -1 2 3 6 9 12 15 16 18 19 29 31 0
x -1 2 3 6 7 8 10 12 13 14 16 18 22 25 26 28 29 31 0
x -1 8 9 11 14 15 16 17 21 23 26 27 32 0
x 6 8 13 15 21 23 24 29 30 31 0
x -1 3 4 5 6 7 9 10 11 12 13 14 15 16 17 19 22 24 26 31 0
x 1 2 3 4 8 9 15 17 19 23 24 25 26 28 29 32 0
x 2 3 4 5 6 8 11 14 15 16 17 22 24 28 29 31 0
x -1 2 6 7 8 9 10 12 13 14 16 17 20 21 24 25 28 29 30 31 32 0
x 2 4 6 7 11 12 13 20 21 22 23 24 25 26 29 30 31 32 0
x -1 4 5 6 7 8 10 11 12 14 17 19 20 24 25 26 31 0
x 3 6 7 9 11 12 13 14 16 17 20 21 23 24 25 26 27 28 0
x 5 6 8 9 11 15 17 22 23 24 27 28 30 31 32 0
x -3 5 8 9 14 15 16 17 18 20 25 26 28 30 0
x 1 2 4 6 8 9 12 13 15 16 17 21 22 24 29 0
x -1 2 4 5 7 8 12 14 15 17 18 20 21 23 24 27 29 0
x -1 4 5 6 9 10 11 12 14 16 17 18 20 21 22 26 27 28 29 30 31 32 0
x 1 3 4 5 6 8 14 15 21 23 24 25 26 30 31 0
x -1 3 4 7 8 9 11 14 15 16 19 22 25 26 30 32 0
x -2 3 4 7 8 10 11 14 15 16 18 21 22 25 28 29 31 0
